100
128
13
33
20
10
18
4
16
43
3
11
43
27
3
11
45
29
15
13
11
1
13
16
1
22
60
29
23
46
11
28
25
11
20
1
52
30
26
22
22
12
4
19
16
1
15
16
21
37
11
51
27
18
9
19
16
16
18
28
44
21
16
15
1
17
48
60
64
64
45
29
40
48
26
63
28
58
64
60
64
43
60
15
61
63
53
37
62
64
14
40
48
64
63
42
38
64
64
48
40
10